c
c start with comments
c
p cnf 30 21
25 18 -6 25 -22 7 0
-12 -20 -1 -31 0
-25 9 -26 3 32 23 0
23 4 13 31 0
30 -8 0
-20 26 15 0
-7 -7 -21 0
16 -14 4 5 0
23 -3 -30 -24 32 0
14 12 0
-25 -17 26 0
15 -2 5 4 0
-32 -24 16 0
-23 22 -28 0
-13 8 0
-27 -16 -1 23 25 25 0
-28 27 -14 0
29 -10 0
28 -1 4 0
-24 -29 -5 -20 0
10 27 -9 0